# Objective value = 2.9902541004983448e+02
x[0] 1
x[1] 1
x[2] 1
x[3] 0
x[4] 0
x[5] 0
x[6] 0
x[7] 1
x[8] 0
x[9] 1
x[10] 1
x[11] 1
x[12] 0
x[13] 0
x[14] 0
x[15] 0
x[16] 0
x[17] 0
x[18] 1
x[19] 1
x[20] 0
x[21] 1
x[22] 1
x[23] 0
x[24] 0
x[25] 1
x[26] 1
x[27] 1
x[28] 1
x[29] 0
x[30] 1
x[31] 0
x[32] 0
x[33] 0
x[34] 0
x[35] 0
x[36] 0
x[37] 1
x[38] 1
x[39] 1
x[40] 1
x[41] 0
x[42] 0
x[43] 1
x[44] 1
x[45] 1
x[46] 1
x[47] 0
x[48] 0
x[49] 1
x[50] 0
x[51] 1
x[52] 0
x[53] 1
x[54] 0
x[55] 0
x[56] 1
x[57] 0
x[58] 0
x[59] 1
x[60] 1
x[61] 0
x[62] 1
x[63] 1
x[64] 1
x[65] 1
x[66] 0
x[67] 0
x[68] 1
x[69] 1
x[70] 1
x[71] 0
x[72] 0
x[73] 1
x[74] 1
x[75] 0
x[76] 0
x[77] 0
x[78] 1
x[79] 0
x[80] 1
x[81] 0
x[82] 1
x[83] 1
x[84] 0
x[85] 0
x[86] 1
x[87] 1
x[88] 0
x[89] 0
x[90] 1
x[91] 0
x[92] 0
x[93] 1
x[94] 0
x[95] 0
x[96] 1
x[97] 1
x[98] 0
x[99] 1
x[100] 0
x[101] 1
x[102] 1
x[103] 0
x[104] 0
x[105] 1
x[106] 1
x[107] 0
x[108] 0
x[109] 0
x[110] 1
x[111] 0
x[112] 0
x[113] 0
x[114] 0
x[115] 0
x[116] 1
x[117] 0
x[118] 0
x[119] 1
x[120] 1
x[121] 0
x[122] 0
x[123] 0
x[124] 0
x[125] 1
x[126] 0
x[127] 1
x[128] 0
x[129] 0
x[130] 0
x[131] 0
x[132] 1
x[133] 0
x[134] 1
x[135] 1
x[136] 1
x[137] 1
x[138] 0
x[139] 1
x[140] 1
x[141] 0
x[142] 1
x[143] 0
x[144] 1
x[145] 1
x[146] 1
x[147] 0
x[148] 0
x[149] 1
x[150] 1
x[151] 1
x[152] 1
x[153] 1
x[154] 0
x[155] 1
x[156] 0
x[157] 1
x[158] 0
x[159] 0
x[160] 0
x[161] 1
x[162] 1
x[163] 1
x[164] 1
x[165] 0
x[166] 0
x[167] 0
x[168] 1
x[169] 0
x[170] 1
x[171] 1
x[172] 0
x[173] 1
x[174] 0
x[175] 1
x[176] 0
x[177] 0
x[178] 1
x[179] 1
x[180] 0
x[181] 1
x[182] 1
x[183] 0
x[184] 0
x[185] 0
x[186] 0
x[187] 0
x[188] 1
x[189] 0
x[190] 1
x[191] 1
x[192] 0
x[193] 0
x[194] 0
x[195] 0
x[196] 1
x[197] 0
x[198] 0
x[199] 1
x[200] 1
x[201] 1
x[202] 0
x[203] 0
x[204] 0
x[205] 1
x[206] 0
x[207] 1
x[208] 0
x[209] 0
x[210] 1
x[211] 1
x[212] 1
x[213] 0
x[214] 0
x[215] 0
x[216] 0
x[217] 1
x[218] 0
x[219] 1
x[220] 1
x[221] 0
x[222] 1
x[223] 0
x[224] 1
x[225] 0
x[226] 0
x[227] 1
x[228] 0
x[229] 1
x[230] 1
x[231] 1
x[232] 1
x[233] 0
x[234] 1
x[235] 0
x[236] 1
x[237] 0
x[238] 0
x[239] 0
x[240] 1
x[241] 1
x[242] 0
x[243] 0
x[244] 0
x[245] 1
x[246] 1
x[247] 0
x[248] 0
x[249] 0
x[250] 1
x[251] 1
x[252] 1
x[253] 1
x[254] 0
x[255] 1
x[256] 1
x[257] 1
x[258] 1
x[259] 0
x[260] 1
x[261] 1
x[262] 0
x[263] 1
x[264] 1
x[265] 0
x[266] 0
x[267] 0
x[268] 1
x[269] 1
x[270] 1
x[271] 1
x[272] 0
x[273] 0
x[274] 1
x[275] 0
x[276] 1
x[277] 0
x[278] 1
x[279] 1
x[280] 1
x[281] 1
x[282] 1
x[283] 1
x[284] 1
x[285] 0
x[286] 0
x[287] 1
x[288] 1
x[289] 0
x[290] 0
x[291] 1
x[292] 1
x[293] 0
x[294] 0
x[295] 0
x[296] 1
x[297] 1
x[298] 1
x[299] 1
x[300] 1
x[301] 0
x[302] 0
x[303] 0
x[304] 0
x[305] 1
x[306] 1
x[307] 0
x[308] 1
x[309] 1
x[310] 1
x[311] 0
x[312] 1
x[313] 1
x[314] 1
x[315] 0
x[316] 0
x[317] 0
x[318] 1
x[319] 1
x[320] 0
x[321] 1
x[322] 0
x[323] 1
x[324] 0
x[325] 1
x[326] 0
x[327] 0
x[328] 0
x[329] 1
x[330] 1
x[331] 1
x[332] 1
x[333] 0
x[334] 0
x[335] 1
x[336] 0
x[337] 0
x[338] 1
x[339] 0
x[340] 0
x[341] 0
x[342] 0
x[343] 1
x[344] 1
x[345] 1
x[346] 1
x[347] 1
x[348] 1
x[349] 1
x[350] 0
x[351] 0
x[352] 0
x[353] 0
x[354] 0
x[355] 0
x[356] 1
x[357] 1
x[358] 1
x[359] 1
x[360] 0
x[361] 0
x[362] 0
x[363] 1
x[364] 0
x[365] 0
x[366] 0
x[367] 0
x[368] 0
x[369] 0
x[370] 0
x[371] 0
x[372] 0
x[373] 0
x[374] 0
x[375] 1
x[376] 1
x[377] 1
x[378] 0
x[379] 1
x[380] 1
x[381] 0
x[382] 0
x[383] 0
x[384] 0
x[385] 0
x[386] 1
x[387] 1
x[388] 1
x[389] 1
x[390] 0
x[391] 1
x[392] 1
x[393] 1
x[394] 0
x[395] 0
x[396] 1
x[397] 1
x[398] 1
x[399] 1
x[400] 0
x[401] 0
x[402] 0
x[403] 1
x[404] 0
x[405] 1
x[406] 0
x[407] 0
x[408] 0
x[409] 0
x[410] 1
x[411] 0
x[412] 1
x[413] 0
x[414] 1
x[415] 1
x[416] 0
x[417] 1
x[418] 0
x[419] 1
x[420] 1
x[421] 1
x[422] 0
x[423] 1
x[424] 0
x[425] 1
x[426] 1
x[427] 1
x[428] 1
x[429] 1
x[430] 0
x[431] 0
x[432] 1
x[433] 1
x[434] 1
x[435] 0
x[436] 1
x[437] 0
x[438] 1
x[439] 1
x[440] 1
x[441] 0
x[442] 1
x[443] 1
x[444] 0
x[445] 1
x[446] 1
x[447] 1
x[448] 0
x[449] 1
x[450] 0
x[451] 0
x[452] 0
x[453] 1
x[454] 0
x[455] 1
x[456] 0
x[457] 0
x[458] 1
x[459] 0
x[460] 0
x[461] 1
x[462] 1
x[463] 1
x[464] 1
x[465] 1
x[466] 0
x[467] 0
x[468] 1
x[469] 0
x[470] 0
x[471] 1
x[472] 0
x[473] 1
x[474] 1
x[475] 1
x[476] 0
x[477] 0
x[478] 1
x[479] 0
x[480] 0
x[481] 0
x[482] 0
x[483] 0
x[484] 0
x[485] 0
x[486] 0
x[487] 1
x[488] 0
x[489] 0
x[490] 1
x[491] 0
x[492] 0
x[493] 1
x[494] 0
x[495] 0
x[496] 0
x[497] 0
x[498] 0
x[499] 1
x[500] 1
x[501] 1
x[502] 0
x[503] 1
x[504] 0
x[505] 1
x[506] 0
x[507] 1
x[508] 0
x[509] 0
x[510] 0
x[511] 1
x[512] 1
x[513] 1
x[514] 1
x[515] 1
x[516] 0
x[517] 1
x[518] 1
x[519] 1
x[520] 1
x[521] 1
x[522] 1
x[523] 0
x[524] 0
x[525] 0
x[526] 0
x[527] 0
x[528] 1
x[529] 0
x[530] 1
x[531] 1
x[532] 0
x[533] 0
x[534] 0
x[535] 1
x[536] 0
x[537] 0
x[538] 1
x[539] 0
x[540] 0
x[541] 1
x[542] 0
x[543] 0
x[544] 0
x[545] 1
x[546] 0
x[547] 1
x[548] 1
x[549] 0
x[550] 1
x[551] 0
x[552] 1
x[553] 0
x[554] 0
x[555] 1
x[556] 1
x[557] 1
x[558] 0
x[559] 1
x[560] 0
x[561] 0
x[562] 1
x[563] 0
x[564] 1
x[565] 1
x[566] 0
x[567] 1
x[568] 1
x[569] 1
x[570] 1
x[571] 0
x[572] 0
x[573] 1
x[574] 0
x[575] 1
x[576] 0
x[577] 0
x[578] 0
x[579] 1
x[580] 0
x[581] 1
x[582] 1
x[583] 0
x[584] 1
x[585] 1
x[586] 1
x[587] 0
x[588] 0
x[589] 0
x[590] 0
x[591] 1
x[592] 1
x[593] 0
x[594] 0
x[595] 1
x[596] 1
x[597] 1
x[598] 0
x[599] 1
x[600] 1
x[601] 1
x[602] 1
x[603] 0
x[604] 0
x[605] 0
x[606] 0
x[607] 1
x[608] 0
x[609] 0
x[610] 1
x[611] 0
x[612] 1
x[613] 0
x[614] 1
x[615] 0
x[616] 1
x[617] 1
x[618] 1
x[619] 1
x[620] 0
x[621] 1
x[622] 1
x[623] 0
x[624] 0
x[625] 1
x[626] 0
x[627] 0
x[628] 1
x[629] 0
x[630] 1
x[631] 0
x[632] 0
x[633] 1
x[634] 1
x[635] 1
x[636] 1
x[637] 1
x[638] 1
x[639] 1
x[640] 1
x[641] 1
x[642] 1
x[643] 0
x[644] 0
x[645] 1
x[646] 1
x[647] 0
x[648] 0
x[649] 0
x[650] 0
x[651] 0
x[652] 0
x[653] 1
x[654] 1
x[655] 1
x[656] 0
x[657] 1
x[658] 0
x[659] 1
x[660] 0
x[661] 0
x[662] 1
x[663] 1
x[664] 0
x[665] 0
x[666] 0
x[667] 0
x[668] 1
x[669] 0
x[670] 0
x[671] 0
x[672] 0
x[673] 1
x[674] 0
x[675] 1
x[676] 0
x[677] 1
x[678] 1
x[679] 0
x[680] 0
x[681] 0
x[682] 0
x[683] 0
x[684] 1
x[685] 0
x[686] 0
x[687] 1
x[688] 0
x[689] 0
x[690] 0
x[691] 1
x[692] 0
x[693] 1
x[694] 1
x[695] 1
x[696] 1
x[697] 1
x[698] 0
x[699] 0
x[700] 1
x[701] 1
x[702] 0
x[703] 1
x[704] 0
x[705] 0
x[706] 1
x[707] 0
x[708] 1
x[709] 0
x[710] 0
x[711] 0
x[712] 0
x[713] 0
x[714] 1
x[715] 1
x[716] 1
x[717] 0
x[718] 0
x[719] 0
x[720] 1
x[721] 0
x[722] 1
x[723] 1
x[724] 1
x[725] 1
x[726] 1
x[727] 0
x[728] 1
x[729] 1
x[730] 0
x[731] 1
x[732] 0
x[733] 1
x[734] 0
x[735] 0
x[736] 0
x[737] 1
x[738] 0
x[739] 0
x[740] 1
x[741] 1
x[742] 0
x[743] 1
x[744] 0
x[745] 0
x[746] 0
x[747] 0
x[748] 0
x[749] 1
x[750] 0
x[751] 0
x[752] 1
x[753] 1
x[754] 1
x[755] 0
x[756] 0
x[757] 1
x[758] 1
x[759] 1
x[760] 0
x[761] 0
x[762] 1
x[763] 0
x[764] 1
x[765] 1
x[766] 0
x[767] 0
x[768] 0
x[769] 0
x[770] 0
x[771] 0
x[772] 1
x[773] 1
x[774] 0
x[775] 1
x[776] 0
x[777] 0
x[778] 1
x[779] 1
x[780] 0
x[781] 0
x[782] 0
x[783] 1
x[784] 0
x[785] 1
x[786] 1
x[787] 1
x[788] 1
x[789] 1
x[790] 1
x[791] 0
x[792] 1
x[793] 1
x[794] 1
x[795] 0
x[796] 1
x[797] 0
x[798] 0
x[799] 1
x[800] 0
x[801] 1
x[802] 0
x[803] 0
x[804] 1
x[805] 1
x[806] 0
x[807] 1
x[808] 1
x[809] 0
x[810] 0
x[811] 1
x[812] 0
x[813] 1
x[814] 1
x[815] 0
x[816] 1
x[817] 0
x[818] 1
x[819] 1
x[820] 1
x[821] 1
x[822] 1
x[823] 0
x[824] 0
x[825] 0
x[826] 1
x[827] 0
x[828] 1
x[829] 1
x[830] 0
x[831] 0
x[832] 0
x[833] 0
x[834] 0
x[835] 1
x[836] 0
x[837] 1
x[838] 0
x[839] 1
x[840] 1
x[841] 0
x[842] 1
x[843] 0
x[844] 0
x[845] 0
x[846] 0
x[847] 1
x[848] 1
x[849] 1
x[850] 0
x[851] 1
x[852] 1
x[853] 0
x[854] 0
x[855] 1
x[856] 0
x[857] 0
x[858] 0
x[859] 0
x[860] 0
x[861] 1
x[862] 0
x[863] 1
x[864] 1
x[865] 1
x[866] 1
x[867] 0
x[868] 1
x[869] 0
x[870] 1
x[871] 0
x[872] 1
x[873] 1
x[874] 1
x[875] 1
x[876] 1
x[877] 0
x[878] 0
x[879] 0
x[880] 1
x[881] 1
x[882] 1
x[883] 1
x[884] 0
x[885] 1
x[886] 1
x[887] 0
x[888] 1
x[889] 0
x[890] 0
x[891] 1
x[892] 1
x[893] 0
x[894] 0
x[895] 1
x[896] 1
x[897] 1
x[898] 0
x[899] 1
x[900] 0
x[901] 1
x[902] 0
x[903] 0
x[904] 0
x[905] 0
x[906] 0
x[907] 0
x[908] 0
x[909] 0
x[910] 0
x[911] 1
x[912] 1
x[913] 1
x[914] 0
x[915] 0
x[916] 1
x[917] 1
x[918] 1
x[919] 0
x[920] 1
x[921] 1
x[922] 0
x[923] 0
x[924] 0
x[925] 1
x[926] 0
x[927] 0
x[928] 1
x[929] 1
x[930] 1
x[931] 0
x[932] 1
x[933] 0
x[934] 0
x[935] 0
x[936] 1
x[937] 0
x[938] 1
x[939] 0
x[940] 1
x[941] 0
x[942] 1
x[943] 1
x[944] 0
x[945] 0
x[946] 0
x[947] 1
x[948] 0
x[949] 1
x[950] 1
x[951] 1
x[952] 1
x[953] 0
x[954] 1
x[955] 1
x[956] 1
x[957] 0
x[958] 0
x[959] 1
x[960] 0
x[961] 1
x[962] 0
x[963] 1
x[964] 0
x[965] 1
x[966] 1
x[967] 0
x[968] 0
x[969] 1
x[970] 0
x[971] 1
x[972] 1
x[973] 1
x[974] 0
x[975] 0
x[976] 0
x[977] 0
x[978] 0
x[979] 1
x[980] 0
x[981] 0
x[982] 1
x[983] 0
x[984] 0
x[985] 1
x[986] 0
x[987] 1
x[988] 1
x[989] 1
x[990] 0
x[991] 0
x[992] 0
x[993] 0
x[994] 0
x[995] 1
x[996] 0
x[997] 0
x[998] 0
x[999] 1
